NAME : 50-5-2BIS-i.16151.tour
COMMENT : Length = 16151
COMMENT : Found by LKH-3 [Keld Helsgaun] Tue Dec 17 14:06:59 2024
TYPE : TOUR
DIMENSION : 60
TOUR_SECTION
1
49
32
54
46
33
36
47
37
40
52
48
50
39
51
31
42
38
55
43
35
44
41
45
53
34
56
2
57
3
58
4
18
15
26
25
28
11
23
12
19
10
6
17
20
16
24
21
9
27
8
29
22
30
7
14
13
59
5
60
-1
EOF
